 $rem
 JOBTYPE FORCE
 EXCHANGE B3LYP
 CORRELATION NONE
! UNRESTRICTED TRUE
 SCF_ALGORITHM rca_diis
 SCF_CONVERGENCE 6
 SCF_MAX_CYCLES 150
 BASIS LANL2DZ
 ECP LANL2DZ
 WAVEFUNCTION_ANALYSIS FALSE

 SYM_IGNORE TRUE
 SYMMETRY   FALSE
 $end


$molecule
0 1
