 $molecule 
 0 1
 C 0.000009 0.000000 0.000011 
 H 1.072236 -0.003662 -0.213431 
 H -0.558651 -0.000575 -0.939781 
 H -0.259448 -0.890541 0.578681 
 H -0.254191 0.894778 0.574464 
 $end 


 $rem 
 JOBTYPE OPT 
 EXCHANGE B3LYP
 CORRELATION NONE
 GEOM_OPT_MAX_CYCLES  285
 GEOM_OPT_TOL_DISPLACEMENT 2500 
 GEOM_OPT_TOL_GRADIENT     800 
 GEOM_OPT_TOL_ENERGY	5000 
 SCF_ALGORITHM rca_diis 
 SCF_MAX_CYCLES 250 
 SCF_CONVERGENCE 6 
 BASIS LANL2DZ 
 ECP LANL2DZ 
 $end 

