 $molecule 
 0 1
 O -0.000008 -0.114285 0.000000 
 H -0.790873 0.457162 0.000000 
 H 0.790934 0.457119 0.000000 
 $end 


 $rem 
 JOBTYPE OPT 
 EXCHANGE B3LYP
 CORRELATION NONE
 GEOM_OPT_MAX_CYCLES  285
 GEOM_OPT_TOL_DISPLACEMENT 2500 
 GEOM_OPT_TOL_GRADIENT     800 
 GEOM_OPT_TOL_ENERGY	5000 
 SCF_ALGORITHM rca_diis 
 SCF_MAX_CYCLES 250 
 SCF_CONVERGENCE 6 
 BASIS LANL2DZ 
 ECP LANL2DZ 
 $end 

